
Gurobi 9.5.2 (win64, .NET) logging started Sun Jun 11 15:04:02 2023

Set parameter Username
Set parameter LogFile to value "mip1.log"
Academic license - for non-commercial use only - expires 2023-10-25
Set parameter NonConvex to value 2
Set parameter PoolSearchMode to value 2
Set parameter PoolSolutions to value 5
Set parameter TimeLimit to value 200
Gurobi Optimizer version 9.5.2 build v9.5.2rc0 (win64)
Thread count: 4 physical cores, 8 logical processors, using up to 8 threads
Optimize a model with 5758 rows, 3689 columns and 22498 nonzeros
Model fingerprint: 0x4fad8301
Model has 102 quadratic constraints
Variable types: 124 continuous, 3565 integer (3565 binary)
Coefficient statistics:
  Matrix range     [1e-04, 3e+03]
  QMatrix range    [1e+00, 1e+00]
  Objective range  [0e+00, 0e+00]
  Bounds range     [1e+00, 9e+01]
  RHS range        [9e-01, 3e+03]
  QRHS range       [8e+00, 3e+03]
Presolve removed 1952 rows and 904 columns
Presolve time: 0.10s
Presolved: 3918 rows, 2803 columns, 15988 nonzeros
Presolved model has 29 quadratic constraint(s)
Presolved model has 31 bilinear constraint(s)
Variable types: 142 continuous, 2661 integer (2661 binary)

Root relaxation: objective 0.000000e+00, 1295 iterations, 0.03 seconds (0.01 work units)

    Nodes    |    Current Node    |     Objective Bounds      |     Work
 Expl Unexpl |  Obj  Depth IntInf | Incumbent    BestBd   Gap | It/Node Time

     0     0    0.00000    0   10          -    0.00000      -     -    0s
     0     0    0.00000    0   69          -    0.00000      -     -    0s
     0     0    0.00000    0   69          -    0.00000      -     -    0s
     0     0    0.00000    0   14          -    0.00000      -     -    0s
     0     0    0.00000    0   16          -    0.00000      -     -    0s
     0     0    0.00000    0   16          -    0.00000      -     -    0s
     0     0    0.00000    0   16          -    0.00000      -     -    1s
     0     0    0.00000    0   22          -    0.00000      -     -    1s
     0     0    0.00000    0   24          -    0.00000      -     -    1s
     0     0    0.00000    0   15          -    0.00000      -     -    1s
     0     0    0.00000    0   22          -    0.00000      -     -    1s
     0     0    0.00000    0    9          -    0.00000      -     -    1s
     0     0    0.00000    0   14          -    0.00000      -     -    1s
     0     0    0.00000    0   14          -    0.00000      -     -    1s
     0     0    0.00000    0   16          -    0.00000      -     -    1s
     0     0    0.00000    0   14          -    0.00000      -     -    1s
     0     2    0.00000    0   14          -    0.00000      -     -    1s

Gurobi 9.5.2 (win64, .NET) logging started Sun Jun 11 15:10:16 2023

Set parameter Username
Set parameter LogFile to value "mip1.log"
Academic license - for non-commercial use only - expires 2023-10-25
Set parameter NonConvex to value 2
Set parameter PoolSearchMode to value 2
Set parameter PoolSolutions to value 5
Set parameter TimeLimit to value 200
Gurobi Optimizer version 9.5.2 build v9.5.2rc0 (win64)
Thread count: 4 physical cores, 8 logical processors, using up to 8 threads
Optimize a model with 5758 rows, 3689 columns and 22498 nonzeros
Model fingerprint: 0x4fad8301
Model has 102 quadratic constraints
Variable types: 124 continuous, 3565 integer (3565 binary)
Coefficient statistics:
  Matrix range     [1e-04, 3e+03]
  QMatrix range    [1e+00, 1e+00]
  Objective range  [0e+00, 0e+00]
  Bounds range     [1e+00, 9e+01]
  RHS range        [9e-01, 3e+03]
  QRHS range       [8e+00, 3e+03]
Presolve removed 1952 rows and 904 columns
Presolve time: 0.06s
Presolved: 3918 rows, 2803 columns, 15988 nonzeros
Presolved model has 29 quadratic constraint(s)
Presolved model has 31 bilinear constraint(s)
Variable types: 142 continuous, 2661 integer (2661 binary)

Root relaxation: objective 0.000000e+00, 1295 iterations, 0.02 seconds (0.01 work units)

    Nodes    |    Current Node    |     Objective Bounds      |     Work
 Expl Unexpl |  Obj  Depth IntInf | Incumbent    BestBd   Gap | It/Node Time

     0     0    0.00000    0   10          -    0.00000      -     -    0s
     0     0    0.00000    0   69          -    0.00000      -     -    0s
     0     0    0.00000    0   69          -    0.00000      -     -    0s
     0     0    0.00000    0   14          -    0.00000      -     -    0s
     0     0    0.00000    0   16          -    0.00000      -     -    0s
     0     0    0.00000    0   16          -    0.00000      -     -    0s
     0     0    0.00000    0   16          -    0.00000      -     -    0s
     0     0    0.00000    0   22          -    0.00000      -     -    0s
     0     0    0.00000    0   24          -    0.00000      -     -    0s
     0     0    0.00000    0   15          -    0.00000      -     -    1s
     0     0    0.00000    0   22          -    0.00000      -     -    1s
     0     0    0.00000    0    9          -    0.00000      -     -    1s
     0     0    0.00000    0   14          -    0.00000      -     -    1s
     0     0    0.00000    0   14          -    0.00000      -     -    1s
     0     0    0.00000    0   16          -    0.00000      -     -    1s
     0     0    0.00000    0   14          -    0.00000      -     -    1s
     0     2    0.00000    0   14          -    0.00000      -     -    1s

Gurobi 9.5.2 (win64, .NET) logging started Sun Jun 11 15:13:04 2023

Set parameter Username
Set parameter LogFile to value "mip1.log"
Academic license - for non-commercial use only - expires 2023-10-25
Set parameter NonConvex to value 2
Set parameter PoolSearchMode to value 2
Set parameter PoolSolutions to value 5
Set parameter TimeLimit to value 200
Gurobi Optimizer version 9.5.2 build v9.5.2rc0 (win64)
Thread count: 4 physical cores, 8 logical processors, using up to 8 threads
Optimize a model with 5758 rows, 3689 columns and 22498 nonzeros
Model fingerprint: 0x4fad8301
Model has 102 quadratic constraints
Variable types: 124 continuous, 3565 integer (3565 binary)
Coefficient statistics:
  Matrix range     [1e-04, 3e+03]
  QMatrix range    [1e+00, 1e+00]
  Objective range  [0e+00, 0e+00]
  Bounds range     [1e+00, 9e+01]
  RHS range        [9e-01, 3e+03]
  QRHS range       [8e+00, 3e+03]
Presolve removed 1952 rows and 904 columns
Presolve time: 0.06s
Presolved: 3918 rows, 2803 columns, 15988 nonzeros
Presolved model has 29 quadratic constraint(s)
Presolved model has 31 bilinear constraint(s)
Variable types: 142 continuous, 2661 integer (2661 binary)

Root relaxation: objective 0.000000e+00, 1295 iterations, 0.02 seconds (0.01 work units)

    Nodes    |    Current Node    |     Objective Bounds      |     Work
 Expl Unexpl |  Obj  Depth IntInf | Incumbent    BestBd   Gap | It/Node Time

     0     0    0.00000    0   10          -    0.00000      -     -    0s
     0     0    0.00000    0   69          -    0.00000      -     -    0s
     0     0    0.00000    0   69          -    0.00000      -     -    0s
     0     0    0.00000    0   14          -    0.00000      -     -    0s
     0     0    0.00000    0   16          -    0.00000      -     -    0s
     0     0    0.00000    0   16          -    0.00000      -     -    0s
     0     0    0.00000    0   16          -    0.00000      -     -    0s
     0     0    0.00000    0   22          -    0.00000      -     -    0s
     0     0    0.00000    0   24          -    0.00000      -     -    0s
     0     0    0.00000    0   15          -    0.00000      -     -    1s
     0     0    0.00000    0   22          -    0.00000      -     -    1s
     0     0    0.00000    0    9          -    0.00000      -     -    1s
     0     0    0.00000    0   14          -    0.00000      -     -    1s
     0     0    0.00000    0   14          -    0.00000      -     -    1s
     0     0    0.00000    0   16          -    0.00000      -     -    1s
     0     0    0.00000    0   14          -    0.00000      -     -    1s
     0     2    0.00000    0   14          -    0.00000      -     -    1s

Gurobi 9.5.2 (win64, .NET) logging started Sun Jun 11 15:21:29 2023

Set parameter Username
Set parameter LogFile to value "mip1.log"
Academic license - for non-commercial use only - expires 2023-10-25
Set parameter NonConvex to value 2
Set parameter PoolSearchMode to value 2
Set parameter PoolSolutions to value 5
Set parameter TimeLimit to value 200
Gurobi Optimizer version 9.5.2 build v9.5.2rc0 (win64)
Thread count: 4 physical cores, 8 logical processors, using up to 8 threads
Optimize a model with 5758 rows, 3689 columns and 22498 nonzeros
Model fingerprint: 0x4fad8301
Model has 102 quadratic constraints
Variable types: 124 continuous, 3565 integer (3565 binary)
Coefficient statistics:
  Matrix range     [1e-04, 3e+03]
  QMatrix range    [1e+00, 1e+00]
  Objective range  [0e+00, 0e+00]
  Bounds range     [1e+00, 9e+01]
  RHS range        [9e-01, 3e+03]
  QRHS range       [8e+00, 3e+03]
Presolve removed 1952 rows and 904 columns
Presolve time: 0.07s
Presolved: 3918 rows, 2803 columns, 15988 nonzeros
Presolved model has 29 quadratic constraint(s)
Presolved model has 31 bilinear constraint(s)
Variable types: 142 continuous, 2661 integer (2661 binary)

Root relaxation: objective 0.000000e+00, 1295 iterations, 0.02 seconds (0.01 work units)

    Nodes    |    Current Node    |     Objective Bounds      |     Work
 Expl Unexpl |  Obj  Depth IntInf | Incumbent    BestBd   Gap | It/Node Time

     0     0    0.00000    0   10          -    0.00000      -     -    0s
     0     0    0.00000    0   69          -    0.00000      -     -    0s
     0     0    0.00000    0   69          -    0.00000      -     -    0s
     0     0    0.00000    0   14          -    0.00000      -     -    0s
     0     0    0.00000    0   16          -    0.00000      -     -    0s
     0     0    0.00000    0   16          -    0.00000      -     -    0s
     0     0    0.00000    0   16          -    0.00000      -     -    0s
     0     0    0.00000    0   22          -    0.00000      -     -    1s
     0     0    0.00000    0   24          -    0.00000      -     -    1s
     0     0    0.00000    0   15          -    0.00000      -     -    1s
     0     0    0.00000    0   22          -    0.00000      -     -    1s
     0     0    0.00000    0    9          -    0.00000      -     -    1s
     0     0    0.00000    0   14          -    0.00000      -     -    1s
     0     0    0.00000    0   14          -    0.00000      -     -    1s
     0     0    0.00000    0   16          -    0.00000      -     -    1s
     0     0    0.00000    0   14          -    0.00000      -     -    1s
     0     2    0.00000    0   14          -    0.00000      -     -    1s
